$molecule
0 1
O
C  1 1.520940
H  2 1.090391 1 106.849456
C  2 1.504543 1 115.381433 3 -124.428609 0
C  4 1.358447 2 122.398281 1 -54.665698 0
C  5 1.515594 4 124.939621 2 5.939217 0
H  6 1.088187 5 113.334987 4 14.068541 0
H  6 1.098833 5 109.197535 4 133.963037 0
H  6 1.100058 5 110.791383 4 -109.481991 0
C  5 1.519544 4 122.394040 2 -174.054594 0
H  10 1.099719 5 108.331046 4 139.437005 0
H  10 1.102731 5 108.881979 4 -106.412455 0
C  10 1.531842 5 113.282798 4 16.128763 0
H  13 1.096961 10 110.473019 5 -170.083518 0
H  13 1.098779 10 109.801580 5 72.379376 0
C  13 1.531487 10 108.755190 5 -48.400570 0
H  16 1.097997 13 111.274354 10 -175.428042 0
H  16 1.099932 13 108.406171 10 -58.548620 0
C  4 1.549751 2 114.574140 1 125.553090 0
C  19 1.553809 4 110.177862 2 64.960843 0
H  20 1.095990 19 111.197951 4 63.695473 0
H  20 1.096442 19 111.739237 4 -56.891625 0
H  20 1.097235 19 110.215749 4 -176.374903 0
C  19 1.555499 4 110.364562 2 -55.287439 0
H  24 1.094987 19 113.041334 4 67.398963 0
H  24 1.095730 19 110.683986 4 -54.008222 0
H  24 1.097109 19 109.420184 4 -173.132489 0
C  2 1.556231 1 89.413760 3 109.072441 0
H  28 1.093828 2 112.134178 1 96.489966 0
C  28 1.501991 2 119.549879 1 -131.107970 0
C  30 1.355017 28 119.868567 2 80.962826 0
H  31 1.088219 30 116.922434 28 1.201355 0
C  31 1.455599 30 127.178844 28 179.757455 0
H  33 1.088075 31 118.095308 30 0.700064 0
C  33 1.346814 31 123.214952 30 -179.325317 0
H  35 1.084953 33 121.921486 31 -179.890947 0
H  35 1.086989 33 121.517166 31 0.208648 0
O  28 1.506577 2 89.620839 1 -14.066116 0
C  30 1.511505 28 114.359846 2 -99.673973 0
H  39 1.091570 30 112.732391 28 176.824927 0
H  39 1.098451 30 111.269282 28 55.842417 0
H  39 1.099223 30 110.613705 28 -62.480705 0
$end

$rem
BASIS = VDZ
METHOD  = B97M-rV
JOBTYPE = OPT
$end
