$molecule
2 5
O          1.17432        0.06339       -0.58850
O          2.63198       -0.13022       -0.39996
Fe        -0.31133       -0.23885       -0.13061
N          1.55343       -3.08899       -0.92088
C          1.70601       -3.10946        0.48129
N          0.51322       -2.84968        1.16783
C         -0.52688       -2.55184        0.17668
C          0.16202       -2.83063       -1.07795
H         -1.57274       -2.82691        0.42957
H         -0.29819       -2.81263       -2.08543
H          2.66930       -3.27629        1.00916
H          0.36696       -2.90347        2.21634
H         -3.71003       -0.47781        2.97729
C         -2.86552       -0.11534        2.36399
H         -1.25041       -0.44769        3.79830
N         -1.52598       -0.30624        2.78716
C         -2.85708        0.50282        1.11014
C         -0.61646        0.26475        1.78732
H         -3.70888        0.76395        0.45647
N         -1.49147        0.75880        0.69123
H          0.12524        0.96442        2.23650
H         -2.84675       -1.70034       -2.26711
C         -2.63126       -0.62046       -2.37984
H         -0.55875       -0.49124       -2.87595
N         -1.21927       -0.09086       -2.12300
C         -3.42548        0.42184       -2.76658
C         -1.43307        1.40069       -2.51103
H         -4.49686        0.40214       -3.05658
N         -2.68464        1.73087       -2.85179
H         -0.55382        2.07574       -2.45943
$end

$rem
BASIS = STO-3G
METHOD  = B3LYP
JOBTYPE = OPT
MAX_SCF_CYCLES = 500
SCF_ALGORITHM = DIIS_GDM
$end
