$molecule
2 5
30
O          1.02812        0.64152        1.64621
O          1.54854        0.99750        2.85653
Fe         0.36161        0.20159        0.22242
N          2.58992        0.38600       -1.06362
C          3.38761       -0.73499       -0.69452
N          2.68765       -1.90507       -0.66591
C          1.25736       -1.63284       -0.97925
C          1.35517       -0.17519       -1.28555
H          0.89269       -2.27281       -1.81134
H          0.52379        0.45136       -1.65646
H          4.46890       -0.66673       -0.45228
H          3.11181       -2.85132       -0.47690
H         -1.84541       -4.43067       -0.83175
C         -1.31568       -3.59359       -0.35347
H         -0.80137       -4.55364        1.56374
N         -0.76217       -3.70176        0.94663
C         -1.03492       -2.31553       -0.78251
C         -0.16172       -2.50864        1.28078
H         -1.29759       -1.83933       -1.73443
N         -0.30666       -1.61172        0.23567
H          0.35050       -2.32140        2.23912
H         -1.71739        1.32429       -2.27222
C         -2.15171        1.10397       -1.28838
H         -1.13277        2.42018        0.02198
N         -1.35089        1.37999       -0.04110
C         -3.36000        0.61851       -0.92035
C         -2.38996        1.05086        1.03281
H         -4.19330        0.29273       -1.56404
N         -3.52768        0.57624        0.55508
H         -2.13309        1.22829        2.09255
$end

$rem
BASIS = STO-3G
METHOD  = B3LYP
JOBTYPE = OPT
MAX_SCF_CYCLES = 500
SCF_ALGORITHM = DIIS_GDM
$end
