$molecule
0 1
C
C  1 1.376407
C  1 1.480903 2 123.773346
H  3 1.096617 1 115.139855 2 -140.366137 0
C  3 1.373304 1 126.986263 2 45.379416 0
H  5 1.095852 3 118.335826 1 -0.560282 0
C  5 1.460739 3 126.420608 1 176.133970 0
C  7 1.388281 5 118.356986 3 -175.261759 0
H  8 1.098697 7 116.459002 5 -1.403032 0
C  8 1.440351 7 128.468379 5 177.429204 0
H  10 1.094007 8 118.285177 7 0.650768 0
C  10 1.381170 8 122.972372 7 -178.492499 0
H  12 1.098354 10 117.477263 8 -0.836193 0
C  12 1.454677 10 126.886487 8 178.740632 0
C  14 1.386368 12 118.535798 10 -179.806061 0
H  15 1.098332 14 116.770857 12 -0.188033 0
C  15 1.450800 14 128.184663 12 179.796833 0
H  17 1.095754 15 117.979543 14 -0.261096 0
C  17 1.363503 15 123.974719 14 179.714200 0
H  19 1.092185 17 121.834104 15 -179.989068 0
H  19 1.094710 17 121.685516 15 0.012618 0
C  7 1.523892 5 118.645877 3 3.628431 0
H  22 1.098622 7 112.545248 5 177.305046 0
H  22 1.105025 7 110.878896 5 56.611882 0
H  22 1.106039 7 111.072681 5 -62.002536 0
C  2 1.525479 1 123.919761 3 2.003883 0
H  26 1.099211 2 112.634572 1 17.779526 0
H  26 1.106167 2 110.172806 1 138.895074 0
H  26 1.108624 2 111.705047 1 -103.306632 0
C  14 1.525660 12 118.416415 10 -0.126268 0
H  30 1.098378 14 112.587630 12 179.441375 0
H  30 1.105284 14 110.970413 12 58.804227 0
H  30 1.105349 14 110.894170 12 -59.921375 0
C  2 1.532227 1 122.913633 3 -177.743744 0
H  34 1.107516 2 109.034054 1 -140.001751 0
H  34 1.112410 2 108.311255 1 106.155409 0
C  34 1.547342 2 114.500755 1 -16.184206 0
H  37 1.105350 34 110.076200 2 164.808053 0
H  37 1.105883 34 109.759580 2 -78.344488 0
C  37 1.543335 34 109.810547 2 42.873005 0
H  40 1.106110 37 110.935142 34 177.250796 0
H  40 1.108128 37 108.648807 34 60.265737 0
C  40 1.563088 37 112.915105 34 -60.182575 0
C  43 1.565671 40 107.319471 37 168.234091 0
H  44 1.101841 43 111.984862 40 174.999223 0
H  44 1.103477 43 110.935084 40 -64.358378 0
H  44 1.105156 43 109.775969 40 55.194259 0
C  43 1.567812 40 109.989443 37 -73.945657 0
H  48 1.102051 43 111.413025 40 58.641511 0
H  48 1.103676 43 111.387959 40 178.903426 0
H  48 1.105073 43 110.161699 40 -61.820136 0
$end

$rem
BASIS = VDZ
METHOD  = B97M-rV
JOBTYPE = OPT
$end
