$molecule
0 1
C         -0.44227        1.98209       -0.59834
C         -0.74587        1.21450        0.45084
C          0.29197        0.42699        1.14719
C         -0.01711       -0.34211        2.19968
C          1.02120       -1.13089        2.89805
C          0.70181       -1.92264        3.93730
H         -1.21989        2.55271       -1.09572
H          0.57599        2.04965       -0.96995
H         -1.77691        1.17409        0.79192
H          1.32031        0.47599        0.79621
H         -1.04629       -0.38864        2.54847
H          2.03355       -1.08428        2.51649
C          1.65276       -2.81250        4.69851
H         -0.35235       -1.99055        4.18415
C          2.97474       -2.49794        4.95486
C          3.89352       -3.43617        5.72288
C          3.15664       -4.48178        6.55212
H          4.53080       -2.87026        6.43718
H          4.56891       -3.91841        4.98301
C          2.12938       -5.15474        5.67040
H          2.66196       -4.01114        7.42608
H          3.89211       -5.22010        6.93851
C          1.04005       -4.14673        5.20452
H          1.65834       -6.01322        6.19831
H          2.67863       -5.56901        4.79360
C          3.65166       -1.18932        4.59459
H          2.99033       -0.38780        4.23582
H          4.47006       -1.37244        3.86725
H          4.09349       -0.75142        5.51448
C          0.05808       -3.84392        6.36256
H          0.56143       -3.31711        7.19818
H         -0.38229       -4.78464        6.75779
H         -0.78315       -3.20252        6.02998
C          0.25937       -4.85971        4.07238
H          0.92838       -5.07328        3.21072
H         -0.59022       -4.24949        3.70250
H         -0.16436       -5.82234        4.43321



$end

$rem
BASIS = 6-31G
METHOD  = BLYP
JOBTYPE = OPT
$end
