$molecule
0 1
C         -0.18222        1.96702       -0.65485
C         -0.70759        1.24622        0.33994
C          0.16078        0.40055        1.20033
C         -0.24823       -0.37372        2.23738
C          0.80217       -1.14753        2.97312
C          0.54069       -1.97432        4.00706
H         -0.82439        2.58151       -1.27787
H          0.88426        1.95457       -0.85972
H         -1.77731        1.31098        0.48098
H          1.22254        0.41564        0.96178
H          1.81918       -1.05905        2.61142
C          1.55966       -2.80751        4.74377
H         -0.49474       -2.12621        4.27738
C          2.85364       -2.39678        5.00666
C          3.84592       -3.27947        5.74849
C          3.19677       -4.40271        6.54915
H          4.43829       -2.68421        6.47743
H          4.55524       -3.68631        4.99520
C          2.22171       -5.12979        5.65100
H          2.67020       -3.99698        7.43687
H          3.98956       -5.09120        6.91354
C          1.05462       -4.19792        5.21596
H          1.82177       -6.03679        6.15591
H          2.79781       -5.47522        4.76170
C          3.42351       -1.02929        4.68005
H          2.69937       -0.27480        4.33907
H          4.25291       -1.12833        3.94887
H          3.83010       -0.58074        5.61098
C          0.05793       -4.00402        6.38493
H          0.52257       -3.46135        7.23269
H         -0.30473       -4.98670        6.75626
H         -0.83348       -3.42295        6.07303
C          0.32568       -4.93834        4.06713
H          1.00482       -5.07622        3.19800
H         -0.57016       -4.38521        3.71664
H         -0.02076       -5.94019        4.40277
C         -1.69697       -0.48255        2.67467
H         -2.40939        0.12116        2.08956
H         -1.78665       -0.15345        3.73120
H         -2.02830       -1.53891        2.59208
$end

$rem
BASIS = 6-31G
METHOD  = BLYP
JOBTYPE = OPT
$end
