
$molecule
0 1
O          0.24520        1.60084       -1.70047
C          0.08999        0.46009       -0.73023
H          0.55380       -0.42248       -1.19256
C         -1.30992        0.17150       -0.29527
C         -2.11442        1.12686        0.24903
C         -1.76011        2.58611        0.36372
H         -0.88060        2.87368       -0.22217
H         -2.61120        3.19773        0.01069
H         -1.60492        2.86721        1.42262
C         -3.48129        0.80304        0.80469
H         -3.63216        1.39090        1.72972
H         -4.25415        1.17557        0.09959
C         -3.69041       -0.68491        1.06545
H         -4.74737       -0.89032        1.30203
H         -3.10484       -0.99725        1.95030
C         -3.24836       -1.46579       -0.16602
H         -3.46558       -2.54357       -0.06432
H         -3.82863       -1.10695       -1.03848
C         -1.74478       -1.29250       -0.47278
C         -0.91057       -2.19289        0.46395
H         -1.11014       -1.96222        1.52401
H          0.17283       -2.06252        0.29230
H         -1.14746       -3.25758        0.29201
C         -1.52687       -1.75056       -1.93235
H         -0.46228       -1.81856       -2.20595
H         -2.01900       -1.05971       -2.63808
H         -1.96355       -2.75514       -2.07132
C          1.13034        1.12252        0.19842
C          2.22670        0.28360        0.76493
C          3.28995       -0.05288       -0.01428
H          3.30015        0.34332       -1.03532
C          4.42898       -0.86173        0.37054
H          4.46205       -1.24610        1.39522
C          5.44745       -1.15885       -0.46751
H          6.29517       -1.77073       -0.15093
H          5.45834       -0.79528       -1.50002
C          2.01242       -0.13406        2.19141
H          2.75385       -0.86463        2.54228
H          1.01048       -0.58303        2.32624
H          2.05283        0.74061        2.86776
H          1.40027        1.71361        1.04851
$end

$rem
BASIS = VDZ
METHOD  = B97M-rV
JOBTYPE = OPT
$end
