$molecule
  2 5
  Fe        -1.04865        2.52535        0.29875
  O         -0.31061        2.95662        1.46301
  H          1.54308       -0.24691        2.82817
  H          2.24339        1.75814       -2.51719
  H          4.08773        0.92211       -0.58024
  O         -0.87336        0.99200       -0.34168
  H          0.55813        1.20635       -2.19645
  H          3.88282       -0.45323        1.68606
  C          1.46288       -1.30133        2.49422
  C          1.60599        0.86997       -2.30513
  H         -5.45207        0.16978        1.82876
  C          2.17132        0.09433       -1.08623
  H         -3.22224        0.23514        0.70447
  H          2.06854       -1.92868        3.17988
  H          0.41106       -1.64169        2.58281
  C          3.71431       -0.00924       -1.08496
  C          1.40898       -0.47677       -0.03190
  C         -0.07848       -0.34818        0.10385
  C          3.62217       -1.35514        1.08848
  H         -0.47923       -0.63646        1.10376
  C         -5.67949       -0.73965        1.23211
  C          2.03446       -1.48994        1.02530
  H          1.68370        0.20549       -3.19983
  C         -3.46067       -0.65267        0.07959
  H          4.07497        0.03810       -2.13757
  C         -1.18036       -0.37753       -1.02995
  C          4.28322       -1.25798       -0.32383
  H          4.00396       -2.25034        1.63041
  H          5.38255       -1.12908       -0.21486
  H         -6.66064       -1.23179        1.41158
  C         -4.78036       -1.24893        0.29222
  C         -2.51512       -1.08146       -0.86815
  H         -0.76969       -0.34283       -2.07371
  C          1.66499       -2.95433        0.50175
  H          4.10758       -2.18159       -0.91852
  H          0.56730       -3.08474        0.44009
  H          2.07475       -3.69572        1.21466
  H         -5.06867       -2.13756       -0.30290
  H          2.10907       -3.13304       -0.49572
  C         -2.64149       -2.33186       -1.77308
  H         -2.53093       -2.05632       -2.84404
  H         -3.62079       -2.83039       -1.62911
  H         -1.83598       -3.06076       -1.52605
$end

$rem
   JOBTYPE         freq
   EXCHANGE        B3LYP
   BASIS           STO-3G
   SCF_MAX_CYCLES  250
   SYMMETRY        false
   SYM_IGNORE      true
$end

@@@

$rem
   JOBTYPE              ts
   SCF_GUESS            read
   GEOM_OPT_DMAX        100
   GEOM_OPT_MAX_CYCLES  1500
EXCHANGE        B3LYP
   BASIS                STO-3G
   MAX_SCF_CYCLES       250
   GEOM_OPT_HESSIAN     read
   SYMMETRY             false
   SYM_IGNORE           true
   GEOM_OPT_CHARAC      true
$end

$molecule
   read
$end
