$molecule
  2 5
  Fe        -2.13431       -2.98010        1.79909
  O         -2.12949       -1.51580        1.25205
  O         -1.44957       -0.28432        1.69633
  H          2.42025        2.75357       -0.47264
  H          2.40978        3.16633        1.27692
  C          1.97506        2.49595        0.50875
  H          0.88647        2.69117        0.45671
  H          4.28225        1.64725       -1.07640
  H          4.30676        1.68237        1.50817
  C          4.53001        0.74686       -0.47396
  C          2.30701        0.99155        0.90411
  C          3.88874        0.81958        0.94814
  H          5.63640        0.68176       -0.39636
  H         -2.74531       -0.92500       -1.37005
  H          2.36567        1.24432        3.09527
  C          1.77506        0.65554        2.36527
  C          1.64700       -0.00308       -0.15701
  H          4.31947       -0.60420       -2.26876
  H          0.70868        0.91292        2.50688
  C          4.00421       -0.53546       -1.19834
  C          0.24590       -0.19339       -0.28906
  C         -2.52416        0.12711       -1.66240
  C          2.48608       -0.75015       -1.12333
  H         -1.71793        0.11022       -2.42767
  H          1.92892       -1.26827       -3.15012
  H         -3.43099        0.55012       -2.13449
  H          4.14261       -0.10250        1.51498
  C          1.96108       -1.77279       -2.15088
  H          0.96171       -2.19073       -1.92825
  C         -0.89420        0.54874        0.42394
  H          1.91786       -0.41985        2.59505
  H          4.44681       -1.44892       -0.70716
  C         -2.10905        0.96123       -0.43369
  H          2.69910       -2.60074       -2.24370
  H         -4.49472        2.18238       -1.42659
  C         -2.80822        2.09359        0.03118
  C         -4.03133        2.66493       -0.54190
  H         -2.40474        2.62149        0.92368
  C         -4.62330        3.80034       -0.00318
  H         -5.54728        4.23184       -0.44563
  H         -4.19774        4.31969        0.88293
  H         -0.10579       -0.92656       -1.04518
  H         -0.51383        1.41921        1.01336
$end

$rem
   JOBTYPE         freq
   METHOD        BLYP
   BASIS           STO-3G
   SCF_MAX_CYCLES  250
   SYMMETRY        false
   SYM_IGNORE      true
$end

@@@

$rem
   JOBTYPE              ts
   SCF_GUESS            read
   GEOM_OPT_DMAX        100
   GEOM_OPT_MAX_CYCLES  1500
   METHOD               BLYP
   BASIS                STO-3G
   MAX_SCF_CYCLES       250
   GEOM_OPT_HESSIAN     read
   SYMMETRY             false
   SYM_IGNORE           true
   GEOM_OPT_CHARAC      true
$end

$molecule
   read
$end
