$molecule
0 1
C         14.85598        5.48781        5.05956
C         13.64192        4.92554        5.12168
C         13.47775        3.48440        5.40496
C         12.25787        2.93437        5.46414
C         12.07790        1.49500        5.74620
C         10.85213        0.95762        5.80228
H         12.75681        5.53720        4.96119
H         14.35905        2.86771        5.56633
H         12.95239        0.86913        5.90922
C          6.54826       -4.91717        6.79953
C          7.77699       -4.39765        6.74775
H          6.41443       -5.97404        7.00623
H          5.66932       -4.29991        6.63778
C          7.98768       -2.96262        6.46830
C          9.22127       -2.44282        6.41659
H          8.63094       -5.04852        6.91516
C          9.42686       -1.00665        6.13661
C         10.65746       -0.47994        6.08317
H         10.08533       -3.08236        6.58211
H          8.56042       -0.37000        5.97160
H         11.52588       -1.11383        6.24765
H         11.37938        3.55508        5.30202
C         15.00625        6.93036        4.77527
C         16.35633        8.94565        4.42593
C         17.69817       10.96629        4.07507
H         15.46251        9.54508        4.26760
C         16.21566        7.50221        4.71087
H         16.81402       11.57610        3.91506
C         17.56295        9.52314        4.36022
C         18.89569       11.54907        4.00790
H         17.10781        6.90063        4.86956
H         19.81296       10.98793        4.15949
H         14.11574        7.53447        4.61612
C          6.65852       -2.19478        6.29336
H          5.83839       -2.87573        6.38600
H          6.63522       -1.73786        5.32610
H          6.58141       -1.43896        7.04681
C          9.63574        1.73716        5.63444
H          9.89041        2.75738        5.43646
H          9.05091        1.68262        6.52881
H          9.07105        1.34495        4.81456
C         19.06214        8.52625        4.57072
H         19.92353        9.15544        4.48685
H         19.09727        7.77072        3.81386
H         19.05061        8.06414        5.53572
C         16.17815        4.54354        5.25177
H         15.87222        3.53739        5.44918
H         16.75977        4.90712        6.07300
H         16.76716        4.56854        4.35883



$end

$rem
BASIS = 6-31G
METHOD  = BLYP
JOBTYPE = OPT
$end
