$molecule
0 1
C
C  1 1.375759
C  1 1.482187 2 123.722930
H  3 1.096979 1 114.961589 2 -138.769095 0
C  3 1.370472 1 127.333987 2 45.907661 0
H  5 1.095888 3 118.708006 1 0.436774 0
C  5 1.466331 3 126.164811 1 177.943075 0
C  7 1.381933 5 118.396709 3 -175.996808 0
H  8 1.098441 7 116.839966 5 -0.481295 0
C  8 1.453427 7 128.161393 5 179.049259 0
H  10 1.095936 8 117.920881 7 0.362953 0
C  10 1.362140 8 123.949197 7 -179.356451 0
H  12 1.092239 10 121.866526 8 179.822938 0
H  12 1.094756 10 121.652236 8 -0.018759 0
C  7 1.524517 5 118.353126 3 3.512182 0
H  15 1.098559 7 112.607764 5 176.474260 0
H  15 1.104848 7 110.774455 5 55.749706 0
H  15 1.105965 7 111.046791 5 -62.805188 0
C  2 1.525449 1 124.141774 3 1.626979 0
H  19 1.099018 2 112.759660 1 15.644061 0
H  19 1.106217 2 110.030440 1 136.679250 0
H  19 1.108390 2 111.633449 1 -105.631820 0
C  2 1.533210 1 122.752392 3 -178.843180 0
H  23 1.107300 2 108.965496 1 -140.645249 0
H  23 1.112223 2 108.501695 1 105.314771 0
C  23 1.546639 2 114.301356 1 -17.036891 0
H  26 1.105268 23 110.123139 2 166.224874 0
H  26 1.105694 23 109.657634 2 -76.870245 0
C  26 1.543465 23 109.744617 2 44.159956 0
H  29 1.106119 26 110.904580 23 177.252488 0
H  29 1.107860 26 108.759253 23 60.237515 0
C  29 1.563964 26 112.737110 23 -60.473699 0
C  32 1.565287 29 107.393362 26 167.248490 0
H  33 1.101901 32 112.057014 29 173.991643 0
H  33 1.103330 32 110.757636 29 -65.582404 0
H  33 1.105151 32 110.008096 29 53.965396 0
C  32 1.568428 29 109.839246 26 -74.799071 0
H  37 1.101961 32 111.479015 29 60.358524 0
H  37 1.103345 32 111.422331 29 -179.399482 0
H  37 1.105078 32 110.244407 29 -60.011788 0
$end

$rem
BASIS = VDZ
METHOD  = B97M-rV
JOBTYPE = OPT
$end
