$molecule
  2 5
Fe        -1.43864       -2.96430        2.23396
O         -1.74302       -1.64056        1.45548
O         -1.44035       -0.24074        1.79786
H          2.37381        2.77406       -0.19332
H          2.59922        2.99747        1.57672
C          2.03387        2.43600        0.80611
H          0.96266        2.69611        0.91446
H          4.32172        1.78548       -0.80961
H          4.32790        1.34859        1.73210
C          4.51529        0.77639       -0.38784
C          2.29995        0.88197        1.01616
C          3.86964        0.62416        1.02635
H          5.61614        0.63915       -0.32621
H         -2.64402       -1.21071       -0.74944
H          2.31222        0.94976        3.22171
C          1.75441        0.40891        2.43133
C          1.60333        0.05150       -0.15164
H          4.18367       -0.15340       -2.41372
H          0.67736        0.61901        2.56942
C          3.92705       -0.31822       -1.33605
C          0.20104       -0.13078       -0.27835
C         -2.78969       -0.21542       -1.22074
C          2.41459       -0.54757       -1.23729
H         -2.32017       -0.23438       -2.23065
H          1.46990       -0.73527       -3.18761
H         -3.87674       -0.05195       -1.35786
H          4.07289       -0.39734        1.41510
C          1.83517       -1.41453       -2.37659
H          0.99493       -2.06445       -2.05885
C         -0.92392        0.57107        0.49634
H          1.92941       -0.67748        2.56934
H          4.38088       -1.32119       -1.09010
C         -2.17486        0.89390       -0.33943
H          2.64108       -2.04058       -2.81356
H         -4.46353        2.01322       -1.57518
C         -2.72356        2.18322       -0.19791
C         -3.91835        2.68518       -0.88245
H         -2.21187        2.90153        0.47954
C         -4.38141        3.97974       -0.68279
H         -5.29074        4.35112       -1.20202
H         -3.86437        4.68745        0.00024
H         -0.16697       -0.77545       -1.10410
H         -0.55501        1.47752        1.03715

$end

$rem
   JOBTYPE         freq
   METHOD        BLYP
   BASIS           STO-3G
   SCF_MAX_CYCLES  250
   SYMMETRY        false
   SYM_IGNORE      true
$end

@@@

$rem
   JOBTYPE              ts
   SCF_GUESS            read
   GEOM_OPT_DMAX        100
   GEOM_OPT_MAX_CYCLES  1500
   METHOD               BLYP
   BASIS                STO-3G
   MAX_SCF_CYCLES       250
   GEOM_OPT_HESSIAN     read
   SYMMETRY             false
   SYM_IGNORE           true
   GEOM_OPT_CHARAC      true
$end

$molecule
   read
$end
