
$rem
JOBTYPE              ts
SCF_GUESS            read
GEOM_OPT_DMAX        100
GEOM_OPT_MAX_CYCLES  1500
METHOD               BLYP
BASIS                STO-3G
MAX_SCF_CYCLES       250
GEOM_OPT_HESSIAN     read
SYMMETRY             false
SYM_IGNORE           true
GEOM_OPT_CHARAC      true
$end

$molecule
read
$end
