$rem
   JOBTYPE Opt
   EXCHANGE B3LYP
   BASIS 6-31G(d)
   GUI=2
$end

$comment
sys_3
$end

$molecule
   3 2
   O        1.67468        0.46332        0.00000
   O        0.94033       -0.42288        0.00000
  Fe       -0.91909       -0.10709        0.00000
$end

