$molecule
  2 5
   Fe         2.61704        1.85506       -0.75276
   H         -4.18216        2.25657        0.35256
   H         -2.07080        3.16899        1.66390
   H         -4.14986        1.46756        1.95275
   C         -3.88847        1.30957        0.87945
   C         -1.59245        2.16533        1.71238
   H         -5.74047        0.35444        0.19434
   H         -1.71225        1.81145        2.76331
   C         -4.66098        0.09922        0.25640
   C         -2.35104        1.20801        0.76431
   H         -0.51878        2.27150        1.47480
   H         -4.22270        0.72290       -1.80272
   C         -4.09676       -0.18493       -1.17314
   H         -4.55931       -0.79332        0.91002
   C         -1.73678        0.32107       -0.16695
   H         -4.66235       -1.01137       -1.65361
   O          0.57415        1.54323       -0.33627
   H         -1.98489        0.61233       -2.96430
   C         -2.55901       -0.58672       -1.15839
   C         -2.00881       -0.45027       -2.64785
   C         -0.21683        0.14477       -0.23460
   H          0.09022        0.00518        2.03133
   O          1.50786        1.13668        0.82864
   C          0.65303       -0.21269        1.08888
   H         -2.70082       -0.99767       -3.31901
   C         -2.40302       -2.10946       -0.69074
   H         -2.81616       -2.25408        0.32754
   H         -1.00071       -0.89450       -2.77261
   H          0.07771       -0.47561       -1.11628
   H         -2.96788       -2.74968       -1.39821
   C          1.49145       -1.47788        1.22974
   H         -1.34188       -2.43076       -0.70021
   C          1.59359       -2.07845        2.65415
   H          1.98940       -1.61999       -0.89637
   C          2.11702       -2.07062        0.11265
   C          2.92808       -3.28888        0.17625
   H          3.08875       -3.76364        1.16544
   H          3.35753       -3.43085       -1.97158
   C          3.48940       -3.86848       -0.95813
   H          4.09126       -4.80068       -0.88478
   H          2.20317       -2.95744        2.62774
   H          0.61531       -2.33325        3.00479
   H          2.03284       -1.35948        3.31371
$end

$rem
   JOBTYPE         freq
   EXCHANGE          B3LYP
   BASIS           STO-3G
   SCF_MAX_CYCLES  250
   SYMMETRY        false
   SYM_IGNORE      true
$end

@@@

$rem
   JOBTYPE              ts
   SCF_GUESS            read
   GEOM_OPT_DMAX        100
   GEOM_OPT_MAX_CYCLES  1500
   EXCHANGE              B3LYP
   BASIS                STO-3G
   MAX_SCF_CYCLES       250
   GEOM_OPT_HESSIAN     read
   SYMMETRY             false
   SYM_IGNORE           true
   GEOM_OPT_CHARAC      true
$end

$molecule
   read
$end
