$molecule
   2 5
   Fe        -1.48203       -2.97884        2.14400
   O         -1.78534       -1.64464        1.38236
   O         -1.47820       -0.25246        1.75386
   H          2.30879        2.78091       -0.17997
   H          2.60051        2.98392        1.58294
   C          2.00753        2.43039        0.82753
   H          0.94117        2.68837        0.97989
   H          4.29572        1.86721       -0.75950
   H          4.31019        1.30948        1.74628
   C          4.48933        0.83559       -0.39729
   C          2.28123        0.87499        1.01127
   C          3.85000        0.61673        1.01083
   H          5.59065        0.69678       -0.34829
   H         -2.66904       -1.15803       -0.81904
   H          2.29230        0.90844        3.21769
   C          1.73933        0.37465        2.41894
   C          1.58824        0.04611       -0.16164
   H          4.01465        0.13162       -2.47143
   H          0.66049        0.57421        2.55929
   C          3.89834       -0.20280       -1.40519
   C          0.18752       -0.12829       -0.30077
   C         -2.79885       -0.15173       -1.27137
   C          2.41895       -0.56730       -1.22519
   H         -2.32176       -0.15600       -2.27793
   H          0.86112       -1.53219       -2.51330
   H         -3.88264        0.02813       -1.41334
   H          4.05271       -0.42144        1.35435
   C          1.91985       -1.64962       -2.20746
   H          2.02124       -2.64231       -1.69920
   C         -0.93709        0.57554        0.47482
   H          1.92332       -0.71221        2.54074
   H          4.45992       -1.17660       -1.36549
   C         -2.17671        0.93220       -0.36419
   H          2.56536       -1.67035       -3.10970
   H         -4.44146        2.10524       -1.59469
   C         -2.70854        2.22602       -0.20293
   C         -3.89072        2.75735       -0.88749
   H         -2.19186        2.92503        0.49066
   C         -4.33511        4.05548       -0.66966
   H         -5.23514        4.44956       -1.18833
   H         -3.81157        4.74378        0.02806
   H         -0.18126       -0.74128       -1.14935
   H         -0.56025        1.46656        1.03528
$end

$rem
   JOBTYPE    freq
   BASIS      sto-3g
   METHOD     BLYP
$end

@@@

$molecule
   read
$end

$rem
   JOBTYPE            rpath
   BASIS              sto-3g
   METHOD             BLYP
   SCF_GUESS          read
   RPATH_MAX_CYCLES   10
   RPATH_MAX_STEPSIZE 50
$end
