
$molecule
read
$end

$rem
JOBTYPE            rpath
BASIS              sto-3g
METHOD             BLYP
SCF_GUESS          read
RPATH_MAX_CYCLES   10
RPATH_MAX_STEPSIZE 50
$end
