$molecule
0 1
C         -3.38168        8.76110       -4.74839
C         -2.76698        9.83058       -5.26647
C         -3.49889       10.65938       -6.27228
C         -3.00814       11.75694       -6.87528
H         -2.01375       12.10853       -6.65058
H         -4.50740       10.34442       -6.53274
C         -3.83203       12.50362       -7.86394
C         -3.42319       13.61804       -8.52264
H         -4.82884       12.11414       -8.06007
C         -4.39847       14.23892       -9.48953
H         -4.39044        8.47682       -5.03353
C         -4.16568       15.33963      -10.24136
H         -5.33010       13.72369       -9.54794
C         -5.06804       16.05108      -11.24629
H         -3.20191       15.77212      -10.11603
C         -6.37739       15.70438      -11.55486
C         -7.18042       16.58656      -12.51213
C         -7.02965       18.02700      -12.03718
H         -8.25741       16.31567      -12.53300
H         -6.84829       16.49944      -13.55702
C         -4.48682       17.29416      -11.99744
C         -7.14523       14.55900      -10.94255
H         -8.18621       14.49711      -11.32098
H         -7.22688       14.69923       -9.84472
H         -6.66878       13.59532      -11.21725
C         -4.06942       16.82920      -13.42269
H         -4.86408       16.37828      -14.03195
H         -3.27501       16.05475      -13.34745
H         -3.65612       17.67817      -14.00964
C         -3.19504       17.90421      -11.38756
H         -3.37113       18.21747      -10.33582
H         -2.88086       18.80365      -11.96169
H         -2.33282       17.20525      -11.42273
C         -5.53944       18.46304      -12.06144
O         -7.58483       18.15633      -10.74535
H         -7.60260       18.72318      -12.68712
H         -5.41851       19.18607      -11.22339
H         -5.32524       19.05836      -12.97656
H         -6.94478       17.79685      -10.07714
C         -2.03289       14.17399       -8.25869
H         -1.76685       15.08077       -8.82349
H         -1.27210       13.40729       -8.51704
H         -1.93716       14.43585       -7.18367
C         -1.36565       10.11056       -4.78174
H         -0.90064       11.00166       -5.23674
H         -0.71322        9.24118       -5.01104
H         -1.37794       10.26682       -3.68197
$end

$rem
BASIS = 6-31G
METHOD  = BLYP
JOBTYPE = OPT
$end
