$molecule
0 1
C         14.73675        5.00779        5.11383
C         13.51462        4.47143        5.13553
C         13.30798        3.05065        5.48434
C         12.07864        2.51936        5.49860
C         11.86379        1.09810        5.84244
C         10.63173        0.57261        5.84352
H         14.86475        6.05368        4.85389
H         15.61532        4.41568        5.35217
H         12.66149        5.09830        4.88976
H         14.16821        2.43200        5.72993
H         12.71889        0.47448        6.09339
C          6.21786       -5.23307        6.75322
C          7.45036       -4.72091        6.78623
H          6.05847       -6.27942        6.99263
H          5.36103       -4.62014        6.48877
C          7.69482       -3.30038        6.46376
C          8.93226       -2.78795        6.49190
H          8.28179       -5.36703        7.05479
C          9.17014       -1.36689        6.16428
C         10.40531       -0.84859        6.17929
H          9.77519       -3.42265        6.75592
H          8.32401       -0.73509        5.90344
H         11.25408       -1.47803        6.43713
H          9.77925        1.19864        5.58953
H          6.85298       -2.66489        6.19784
H         11.22063        3.14034        5.25079

$end

$rem
BASIS = 6-31G
METHOD  = BLYP
JOBTYPE = OPT
$end
