$molecule
0 1
C          1.09786        0.95703       -0.22304
C          1.56725       -0.16898        0.66819
C          0.88998       -1.45332        0.21777
C         -0.60454       -1.32893       -0.04619
C         -1.25817       -0.10643       -0.13569
C         -0.42922        1.21265       -0.04493
C         -2.79055        0.02159       -0.40961
C         -3.67452        0.38989        0.74818
C         -4.79269        1.39207        0.42283
C         -6.08046        0.97975        0.28022
C         -0.67544        1.90598        1.31651
C         -0.81452        2.18812       -1.18196
C         -1.27872       -2.67317       -0.22721
C         -7.21543        1.88699       -0.02986
C         -8.45821        1.41428       -0.15561
C         -4.45583        2.85586        0.27248
O         -3.45892       -1.20461       -0.40925
O         -4.15671       -0.91964        0.69060
H          1.32902        0.66606       -1.27380
H          1.67124        1.88540       -0.00517
H          1.32232        0.05121        1.72567
H          2.66924       -0.30065        0.60745
H          1.08760       -2.20737        1.01105
H          1.35327       -1.81803       -0.72538
H         -3.03666        0.55483       -1.35240
H         -3.15547        0.55164        1.71437
H         -6.32699       -0.07113        0.39524
H         -0.43938        1.24103        2.17036
H         -1.71950        2.21643        1.44538
H         -0.05725        2.82521        1.40545
H         -0.64813        1.71671       -2.17482
H         -0.20472        3.11646       -1.12946
H         -1.87386        2.49659       -1.12796
H         -0.55460       -3.51250       -0.14879
H         -1.73546       -2.74060       -1.23699
H         -2.03326       -2.84051        0.56897
H         -7.06106        2.95270       -0.16150
H         -8.67429        0.35684       -0.03508
H         -9.27556        2.09125       -0.38257
H         -3.38822        3.06106        0.42677
H         -5.01549        3.45163        1.02415
H         -4.72002        3.20227       -0.74899
$end

$rem
BASIS = 6-31G
METHOD  = B3LYP
JOBTYPE = OPT
$end
