$molecule
3 4
Fe        -2.02188        8.67392        5.29699
N         -1.00586       12.49034        5.96233
C         -1.09101       11.63863        4.92061
N         -2.35758       11.47719        4.49788
C         -3.10966       12.25082        5.29529
C         -2.27597       12.87503        6.19604
H         -4.18471       12.35236        5.22619
H         -2.57367       13.56458        6.97439
H         -0.23802       11.14270        4.47677
H         -2.68725       10.87430        3.71210
H         -6.69688       10.49875        5.73540
C         -6.21811        9.67053        6.24071
H         -4.43511        9.41418        5.08715
N         -5.04434        9.12737        5.88410
C         -6.68608        8.99216        7.34379
C         -4.81620        8.13753        6.76571
H         -7.60843        9.18779        7.87375
N         -5.80521        8.02765        7.67553
H         -3.94067        7.50246        6.74844
H         -4.45295       11.84757        8.00825
C         -4.17766       11.10860        8.74811
H         -2.26722       10.44998        8.04178
N         -3.03943       10.39795        8.74217
C         -4.91561       10.72725        9.84571
C         -3.10019        9.60335        9.82570
H         -5.88483       11.11237       10.13223
N         -4.23936        9.78030       10.52481
H         -2.32626        8.90233       10.10609
H         -1.36181        7.50756        7.52958
C         -0.43836        7.89911        7.93473
H          0.17865        9.26687        6.40863
N          0.34070        8.81100        7.33317
C          0.14393        7.56460        9.13674
C          1.37475        9.01644        8.16827
H         -0.23785        6.85601        9.85936
N          1.28451        8.26668        9.28535
H          2.18615        9.70351        7.96782
$end

$rem
BASIS = mixed
METHOD  = BLYP
JOBTYPE = OPT
MAX_SCF_CYCLES = 500
SCF_ALGORITHM = DIIS_GDM
$end

$BASIS
Fe 1
VDZ
****
N 2
6-31G
****
C 3
6-31G
****
N 4
6-31G
****
C 5
6-31G
****
C 6
6-31G
****
H 7
STO-3G
****
H 8
STO-3G
****
H 9
STO-3G
****
H 10
STO-3G
****
H 11
STO-3G
****
C 12
6-31G
****
H 13
STO-3G
****
N 14
6-31G
****
C 15
6-31G
****
C 16
6-31G
****
H 17
STO-3G
****
N 18
6-31G
****
H 19
STO-3G
****
H 20
STO-3G
****
C 21
6-31G
****
H 22
STO-3G
****
N 23
6-31G
****
C 24
6-31G
****
C 25
6-31G
****
H 26
STO-3G
****
N 27
6-31G
****
H 28
STO-3G
****
H 29
STO-3G
****
C 30
6-31G
****
H 31
STO-3G
****
N 32
6-31G
****
C 33
6-31G
****
C 34
6-31G
****
H 35
STO-3G
****
N 36
6-31G
****
H 37
STO-3G
****
