$molecule
0 1
C         -0.29308        2.85890       -1.09464
C         -0.81526        1.93416       -0.28393
C          0.06742        1.02282        0.49021
C         -0.33895        0.04839        1.34190
C          0.72170       -0.75666        2.02073
C          0.46944       -1.74845        2.88466
H         -0.94598        3.51986       -1.65587
H          0.78138        2.96856       -1.20876
H         -1.89351        1.88619       -0.22322
H          1.13750        1.16329        0.34946
H          1.76537       -0.53586        1.81089
H         -0.53874       -2.04051        3.15560
H          1.29458       -2.28844        3.33796
C         -1.79601       -0.25668        1.63218
H         -2.52186        0.37649        1.09636
H         -1.98950       -0.12402        2.71727
H         -2.01379       -1.30827        1.35075
$end

$rem
BASIS = 6-31G
METHOD  = BLYP
JOBTYPE = OPT
$end
