$molecule
0 1
C         15.07220        4.72590        5.22463
C         13.77417        4.41390        5.22610
C         13.32031        3.03209        5.48840
C         12.01592        2.72046        5.48941
C         11.57697        1.32478        5.75523
C         10.29576        0.87854        5.78487
H         15.38416        5.74687        5.02969
H         15.83179        3.97366        5.41607
H         13.04573        5.19614        5.02999
H         14.06249        2.26109        5.68288
H         12.37120        0.60449        5.94187
C          6.56256       -5.55024        6.92460
C          7.61976       -4.73556        6.80884
H          6.72435       -6.60001        7.14837
H          5.53861       -5.22690        6.80798
C          7.56366       -3.27006        6.50475
C          8.74266       -2.60776        6.42620
H          8.59669       -5.19162        6.95044
C          8.87011       -1.15594        6.13387
C         10.08134       -0.57392        6.07317
H          9.66554       -3.16184        6.58524
H          7.97793       -0.56516        5.96890
H         10.95715       -1.19653        6.24384
H         11.30561        3.51181        5.29226
C          6.25656       -2.53119        6.28889
H          5.35907       -3.16589        6.37551
H          6.24250       -2.08707        5.27110
H          6.15580       -1.72260        7.04345
C          9.09289        1.77074        5.54302
H          9.32649        2.82773        5.33699
H          8.43770        1.75419        6.43909
H          8.52358        1.39022        4.66919

$end

$rem
BASIS = 6-31G
METHOD  = BLYP
JOBTYPE = OPT
$end
