$molecule
0 1
C         -0.39835        2.82923       -1.06373
C         -0.78447        1.83448       -0.26151
C          0.20284        1.02531        0.48200
C         -0.18910        0.02810        1.28584
C          0.79821       -0.78107        2.02935
C          0.41209       -1.77584        2.83155
H         -1.14004        3.41148       -1.60093
H          0.65228        3.07218       -1.19283
H         -1.84555        1.62307       -0.15945
H          1.26213        1.24637        0.37178
H         -1.24840       -0.19296        1.39606
H          1.85929       -0.56965        1.92730
H         -0.63854       -2.01882        2.96062
H          1.15378       -2.35810        3.36873
$end

$rem
BASIS = 6-31G
METHOD  = BLYP
JOBTYPE = OPT
$end
