$molecule
2 5
C          6.11198       -0.70536       -0.88427
C          5.12327        0.01013       -0.27934
C          3.71285       -0.33353       -0.35043
C          2.64218        0.33239        0.21524
C          1.29337       -0.19596       -0.01211
C          0.11986        0.37585        0.40516
H          7.16213       -0.41422       -0.81068
H          5.89421       -1.60247       -1.47271
H          5.40611        0.90145        0.29217
H          3.48343       -1.23391       -0.93630
H          1.24870       -1.11564       -0.60638
C         -1.25696       -0.11230        0.15427
H          0.18170        1.34105        0.92276
C         -1.64248       -1.42380        0.30938
C         -3.06739       -1.90945        0.01869
C         -4.12190       -0.78047       -0.05558
H         -3.35846       -2.65158        0.78721
H         -3.05986       -2.47126       -0.94118
C         -3.56496        0.39986       -0.87954
H         -4.37804       -0.44297        0.96572
H         -5.05702       -1.16249       -0.50416
C         -2.26916        1.01440       -0.25567
H         -4.32246        1.19877       -0.98643
H         -3.33324        0.04247       -1.90225
C         -0.71751       -2.53672        0.79192
H          0.19957       -2.15383        1.26117
H         -0.41500       -3.20548       -0.03860
H         -1.24359       -3.17471        1.52671
C         -2.63988        1.87149        1.00446
H         -3.13263        1.26007        1.77757
H         -3.32420        2.69166        0.72123
H         -1.74401        2.32694        1.45982
C         -1.63330        1.95677       -1.33165
H         -1.28815        1.37681       -2.20449
H         -0.76979        2.51451       -0.93484
H         -2.38138        2.69188       -1.68000
C          2.79279        1.59598        1.05477
H          3.84353        1.87288        1.21637
H          2.32264        1.46616        2.04613
H          2.29118        2.45551        0.57232
Fe         0.23756        1.46656       -2.64868
O          2.20556        1.50366       -2.64868
O          3.44096        1.53326       -2.64868
$end

$rem
BASIS = VDZ
METHOD  = BLYP
JOBTYPE = OPT
$end
