$molecule
2 5
Fe        -0.28190       -1.48682        0.36044
O         -0.76259       -3.17269        1.11627
O         -0.26527       -4.06723        0.28017
H          3.87904       -6.67333        3.23846
H          4.03445       -8.13817        2.20877
C          3.37846       -7.27319        2.45130
H          2.43621       -7.67063        2.88494
H          5.26232       -5.16266        2.35549
H          5.12545       -6.83910        0.43190
C          5.07848       -4.85198        1.30684
C          3.09062       -6.43120        1.18629
C          4.42784       -5.97744        0.52717
H          6.05745       -4.57477        0.85935
H         -1.27160       -6.88192        3.13947
H          3.04753       -8.19482       -0.12118
C          2.38707       -7.34365        0.15938
C          2.20682       -5.22422        1.60489
H          4.59672       -2.87420        1.93768
H          1.45539       -7.77867        0.57699
C          4.15731       -3.63999        1.26234
C          0.76076       -5.49460        2.03132
C         -1.81940       -7.02843        2.18552
C          2.72913       -3.95282        1.66251
H         -1.35396       -7.86667        1.62836
H          2.52991       -2.28170        2.99548
H         -2.83983       -7.34199        2.45821
H          4.24075       -5.59130       -0.50109
C          1.96512       -2.74845        2.16251
H          0.98236       -2.97599        2.59634
C         -0.31685       -5.33025        0.91463
H          2.14158       -6.78061       -0.76619
H          4.12526       -3.20323        0.24005
C         -1.73242       -5.76674        1.35090
H          1.85416       -2.00746        1.34483
H         -4.52798       -6.23420        1.91275
C         -2.84001       -5.06759        0.96133
C         -4.25391       -5.38975        1.29760
H         -2.71988       -4.19597        0.32869
C         -5.25442       -4.62831        0.84004
H         -6.28218       -4.87319        1.09022
H         -5.06720       -3.75923        0.21586
H          0.50625       -5.05666        3.01764
H         -0.03465       -6.06647        0.13910
$end

$rem
BASIS = STO-3G
METHOD  = BLYP
JOBTYPE = OPT
MAX_SCF_CYCLES = 500
SCF_ALGORITHM = DIIS_GDM
$end
