$molecule
0 1
O
C  1 1.480587
H  2 1.101389 1 107.824262
C  2 1.526638 1 115.940402 3 123.946151 0
C  4 1.364953 2 117.992507 1 -157.276192 0
C  5 1.525210 4 123.180227 2 177.779237 0
H  6 1.106463 5 108.599034 4 -139.104550 0
H  6 1.109355 5 108.582521 4 107.291623 0
C  5 1.525847 4 124.545539 2 -2.816857 0
H  9 1.096190 5 114.595028 4 -18.208567 0
H  9 1.103748 5 109.543061 4 -138.222610 0
H  9 1.106225 5 110.957400 4 104.872490 0
O  1 1.535112 2 90.213929 3 103.704194 0
C  13 1.486571 1 90.352997 2 8.544094 0
H  14 1.102336 13 110.044752 1 105.131294 0
C  14 1.503799 13 112.806590 1 -130.497627 0
C  16 1.371312 14 118.325590 13 -132.228727 0
H  17 1.097973 16 117.124000 14 2.750881 0
C  17 1.445530 16 127.477982 14 -176.408465 0
H  19 1.093229 17 117.854276 16 -0.677980 0
C  19 1.372813 17 123.070893 16 178.554158 0
H  21 1.097504 19 117.561537 17 0.040850 0
C  21 1.453992 19 126.698195 17 -179.633535 0
C  23 1.379765 21 118.274201 19 178.410551 0
H  24 1.097517 23 116.826013 21 -0.221598 0
C  24 1.448910 23 128.158463 21 -179.937406 0
H  26 1.094860 24 118.093585 23 -0.708178 0
C  26 1.357789 24 123.840155 23 179.276311 0
H  28 1.091585 26 121.638237 24 -179.961506 0
H  28 1.093941 26 121.629244 24 -0.094075 0
C  16 1.517439 14 117.056265 13 48.772293 0
H  31 1.098572 16 112.252421 14 -159.025291 0
H  31 1.100386 16 109.716237 14 -38.416862 0
H  31 1.105916 16 111.920940 14 80.161996 0
C  23 1.520546 21 118.401182 19 -1.358401 0
H  35 1.096884 23 112.708796 21 -179.207713 0
H  35 1.103162 23 110.854144 21 -58.397880 0
H  35 1.103421 23 110.847164 21 60.099209 0
C  6 1.538096 5 113.614210 4 -15.306147 0
H  39 1.103203 6 110.439077 5 167.445241 0
H  39 1.103449 6 109.670992 5 -75.285755 0
C  39 1.537174 6 108.979638 5 45.344244 0
H  42 1.103594 39 111.008973 6 175.810603 0
H  42 1.105961 39 108.487756 6 59.224409 0
C  4 1.556078 2 119.292478 1 22.284430 0
C  45 1.560860 4 112.133896 2 48.899769 0
H  46 1.096751 45 112.170502 4 -63.574628 0
H  46 1.103126 45 111.228549 4 58.677533 0
H  46 1.103340 45 109.201489 4 176.697368 0
C  45 1.563056 4 109.789212 2 -71.563075 0
H  50 1.098777 45 111.157164 4 60.269280 0
H  50 1.101626 45 111.867882 4 -60.558084 0
H  50 1.103680 45 109.908353 4 179.570189 0
$end

$rem
BASIS = VDZ
METHOD  = B97M-rV
JOBTYPE = OPT
$end
