$molecule
read /295project/testqchem/c295/sys_1_opt_vdz_gga/sys_1_opt_vdz_gga.out
$end

$rem
BASIS = VDZ
METHOD  = B97M-rV
JOBTYPE = OPT
MAX_SCF_CYCLES = 500
SCF_ALGORITHM = DIIS_GDM
$end
