$molecule
2 5
Fe
O  1 1.946473
O  2 1.265326 1 135.774603
N  1 1.954755 2 89.621093 3 69.419690 0
C  4 1.355294 1 127.110165 2 44.852211 0
H  5 1.088208 4 126.868611 1 3.277860 0
N  5 1.353174 4 108.984972 1 -177.202829 0
H  7 1.020497 5 125.278628 4 -179.460694 0
C  7 1.392800 5 109.448999 4 0.439678 0
H  9 1.087376 7 122.757242 5 179.171579 0
C  9 1.376015 7 106.010639 5 -0.419317 0
H  11 1.086538 9 128.624961 7 179.337233 0
N  1 1.957576 2 90.477459 3 -93.582765 0
C  13 1.355362 1 127.851857 2 -24.603189 0
H  14 1.087916 13 126.670853 1 -3.712528 0
N  14 1.353641 13 109.041512 1 176.856601 0
H  16 1.020964 14 125.272197 13 179.845815 0
C  16 1.392454 14 109.528460 13 -0.326691 0
H  18 1.087696 16 122.845737 14 -179.189627 0
C  18 1.375891 16 105.922162 14 0.368537 0
H  20 1.087446 18 128.223892 16 -178.414113 0
N  1 2.067499 2 149.584145 3 172.290580 0
H  22 1.033388 1 104.303738 2 74.665487 0
C  22 1.461368 1 112.071195 2 -160.459534 0
H  24 1.088514 22 121.706034 1 -70.237056 0
C  24 1.361349 22 107.109467 1 112.027581 0
H  26 1.088453 24 128.974388 22 -179.237112 0
N  26 1.424280 24 110.470962 22 2.079883 0
C  28 1.294329 26 107.793768 24 0.710184 0
H  29 1.091129 28 127.083764 26 176.150356 0
$end

$rem
BASIS = VDZ
METHOD  = B97M-rV
JOBTYPE = OPT
MAX_SCF_CYCLES = 500
SCF_ALGORITHM = DIIS_GDM
$end
